27 69 1 50 3 29 76 79 78 81 51 9 35 34 68 77 
83 45 48 47 36 49 46 82 52 
53 
28 33 65 71 30 31 88 7 18 8 84 17 5 60 89 
62 63 64 19 11 90 10 20 66 32 70 
94 92 42 15 14 44 38 86 91 37 87 57 43 100 98 93 96 
40 21 73 72 75 41 22 74 2 58 
59 85 16 61 99 6 95 97 13 
26 39 67 23 56 4 54 55 25 24 80 12 
